c A SAT instance generated from a 3-CNF formula that had 16 clauses and 8 variables
p cnf 8 16
2 -1 -8 0
3 -6 5 0
-5 1 3 0
3 5 4 0
-2 1 -7 0
5 -6 2 0
3 -2 -7 0
5 -1 -7 0
-6 5 2 0
-4 2 -6 0
3 8 -1 0
8 1 -3 0
-6 -5 1 0
-2 6 3 0
-7 6 -2 0
5 1 -8 0
